69 98 53 9 87 97 10 13 17 60 
92 67 71 94 93 
95 62 50 34 26 32 66 
64 83 52 75 23 21 18 19 51 84 56 91 80 
63 33 28 27 29 31 30 85 76 49 22 20 24 74 
61 68 
72 36 39 42 44 41 38 40 35 37 43 70 100 
82 12 11 15 16 73 78 79 7 6 8 46 3 4 1 55 
65 59 14 47 45 5 2 88 99 86 57 90 81 54 96 89 48 25 77 58 
